TCS_Benchmarks/redos_fix/regexlib2_output_distinct_839_838_10_0.smt2
(set-logic QF_S)
(declare-const x String)
(assert (str.in.re x (re.inter  (re.++ (re.+ (re.+ (re.comp  (re.union  (str.to.re "\u{71}") (re.union  (str.to.re "\u{74}") (re.union  (str.to.re "\u{75}") (re.union  (str.to.re "\u{26}") (re.union  (str.to.re "\u{27}") (re.union  (str.to.re "\u{3b}")  (str.to.re "\u{6f}")))))))) ) ) (re.+  (re.++ (re.+ (re.union (re.range "\u{00}" "\u{09}") (re.range "\u{0b}" "\u{0c}") (re.range "\u{0e}" "\u{84}") (re.range "\u{86}" "\u{ff}")) ) (re.++  (re.union  (re.++  (str.to.re "\u{26}") (re.++  (str.to.re "\u{71}") (re.++  (str.to.re "\u{75}") (re.++  (str.to.re "\u{6f}") (re.++  (str.to.re "\u{74}")  (str.to.re "\u{3b}"))))))  (str.to.re "\u{27}")) (re.++ (re.* (re.union (re.range "\u{00}" "\u{09}") (re.range "\u{0b}" "\u{0c}") (re.range "\u{0e}" "\u{84}") (re.range "\u{86}" "\u{ff}")) ) (re.++ (re.opt  (re.union  (re.++  (str.to.re "\u{26}") (re.++  (str.to.re "\u{71}") (re.++  (str.to.re "\u{75}") (re.++  (str.to.re "\u{6f}") (re.++  (str.to.re "\u{74}")  (str.to.re "\u{3b}"))))))  (str.to.re "\u{27}")) ) (re.* (re.union (re.range "\u{00}" "\u{09}") (re.range "\u{0b}" "\u{0c}") (re.range "\u{0e}" "\u{84}") (re.range "\u{86}" "\u{ff}")) ))))) )) (re.+  (re.++ (re.+ (re.union (re.range "\u{00}" "\u{09}") (re.range "\u{0b}" "\u{0c}") (re.range "\u{0e}" "\u{84}") (re.range "\u{86}" "\u{ff}")) ) (re.++  (re.union  (re.++  (str.to.re "\u{26}") (re.++  (str.to.re "\u{71}") (re.++  (str.to.re "\u{75}") (re.++  (str.to.re "\u{6f}") (re.++  (str.to.re "\u{74}")  (str.to.re "\u{3b}"))))))  (str.to.re "\u{27}")) (re.++ (re.* (re.union (re.range "\u{00}" "\u{09}") (re.range "\u{0b}" "\u{0c}") (re.range "\u{0e}" "\u{84}") (re.range "\u{86}" "\u{ff}")) ) (re.++ (re.opt  (re.union  (re.++  (str.to.re "\u{26}") (re.++  (str.to.re "\u{71}") (re.++  (str.to.re "\u{75}") (re.++  (str.to.re "\u{6f}") (re.++  (str.to.re "\u{74}")  (str.to.re "\u{3b}"))))))  (str.to.re "\u{27}")) ) (re.* (re.union (re.range "\u{00}" "\u{09}") (re.range "\u{0b}" "\u{0c}") (re.range "\u{0e}" "\u{84}") (re.range "\u{86}" "\u{ff}")) ))))) )  (re.++  (str.to.re "\u{21}") (re.* (re.union (re.range "\u{00}" "\u{09}") (re.range "\u{0b}" "\u{0c}") (re.range "\u{0e}" "\u{84}") (re.range "\u{86}" "\u{ff}")) )) )))
(check-sat)
(get-model)