TCS_Benchmarks/redos_fix/regexlib2_output_distinct_839_838_10_0.txt
([^qtu&';o]+)+(.+(&quot;|').*(&quot;|')?.*)+
(.+(&quot;|').*(&quot;|')?.*)+
!.*